\ This file was automatically generated by Zimpl
\ set fabricas := {1, 2};
\ set distribuidores := {1, 2, 3, 4};
\ param capacProducao[fabricas] := <1> 80000, <2> 65000;
\ param demandaDistribuidor[distribuidores] := <1> 75000, <2> 20000, <3> 30000, <4> 40000;
\ param custoTransporteFabrica1[distribuidores] := <1> 50, <2> 10, <3> 70, <4> 30;
\ param custoTransporteFabrica2[distribuidores] := <1> 60, <2> 40, <3> 60, <4> 20;
\ param taxaProdutoNaoEntregue[distribuidores] := <1> 0.5, <2> 0.3, <3> 0.20, <4> 0.0;
\ var produtosFabrica1[distribuidores] >= 0;
\ var produtosFabrica2[distribuidores] >= 0;
\ do print distribuidores;
\ do print "Cardinality of distribuidores:", card(distribuidores);
\ minimize custo :          sum <d> in distribuidores:                  (produtosFabrica1[d] * custoTransporteFabrica1[d] + pro
\ dutosFabrica2[d] * custoTransporteFabrica2[d] )                                                                          ;
\ subto limiteProducaoFabrica1:         sum <d> in distribuidores:                 produtosFabrica1[d] <= capacProducao[1];
\ subto limiteProducaoFabrica2:         sum <d> in distribuidores:                 produtosFabrica2[d] <= capacProducao[2];
\ subto demandaDistribuidor4:         produtosFabrica1[4] + produtosFabrica2[4] == demandaDistribuidor[4];
\Problem name: file
Minimize
 custo:  +50 produtosFabric@0 +10 produtosFabric@1 +70 produtosFabric@2 +30 produtosFabric@3 +60 produtosFabric@4 +40 produtosFabric@5
  +60 produtosFabric@6 +20 produtosFabric@7
Subject to
 limiteProducao@0:
  + produtosFabric@3 + produtosFabric@2 + produtosFabric@1 + produtosFabric@0 <= 80000
 limiteProducao@1:
  + produtosFabric@7 + produtosFabric@6 + produtosFabric@5 + produtosFabric@4 <= 65000
 demandaDistrib@2:
  + produtosFabric@7 + produtosFabric@3 = 40000
Bounds
 0 <= produtosFabric@0 <= +inf
 0 <= produtosFabric@1 <= +inf
 0 <= produtosFabric@2 <= +inf
 0 <= produtosFabric@3 <= +inf
 0 <= produtosFabric@4 <= +inf
 0 <= produtosFabric@5 <= +inf
 0 <= produtosFabric@6 <= +inf
 0 <= produtosFabric@7 <= +inf
End
